job_count = 32 ;
duration = [|2, 8|7, 4|3, 1|15, 3|17, 9|11, 6|16, 7|16, 8|13, 8|13, 9|3, 7|10, 2|16, 5|6, 1|17, 7|16, 4|4, 1|18, 4|15, 6|2, 7|2, 5|4, 6|4, 2|17, 3|9, 4|8, 1|16, 8|17, 5|10, 7|8, 6|10, 3|3, 5|] ;
machine_count = 2 ;
cost = [|18, 26|17, 39|16, 30|12, 38|13, 21|19, 22|17, 32|14, 36|10, 20|16, 21|10, 29|13, 39|10, 29|11, 37|15, 31|17, 35|15, 27|19, 36|17, 33|15, 25|15, 23|17, 24|14, 31|10, 29|18, 39|18, 28|14, 35|11, 29|19, 23|10, 25|18, 31|12, 35|] ;
deadline = [80, 80, 80, 80, 80, 80, 80, 80, 80, 80, 80, 80, 80, 80, 80, 80, 80, 80, 80, 80, 80, 80, 80, 80, 80, 80, 80, 80, 80, 80, 80, 80] ;
release = [0, 0, 0, 0, 0, 0, 0, 0, 0, 0, 0, 0, 0, 0, 0, 0, 0, 0, 0, 0, 0, 0, 0, 0, 0, 0, 0, 0, 0, 0, 0, 0] ;
resource = [|2, 2|8, 8|1, 1|8, 8|6, 6|8, 8|2, 2|4, 4|7, 7|2, 2|6, 6|5, 5|6, 6|8, 8|6, 6|5, 5|7, 7|1, 1|8, 8|2, 2|9, 9|9, 9|7, 7|7, 7|9, 9|9, 9|9, 9|5, 5|2, 2|2, 2|6, 6|1, 1|] ;
capacities = [10, 10] ;
